language Essence 1.3

letting codeWordLength be 49
letting dist be
        function((1, 1) --> 0, (1, 2) --> 11, (1, 3) --> 11, (1, 4) --> 22, (1, 5) --> 17, (1, 6) --> 16, (1, 7) --> 7,
                 (1, 8) --> 12, (1, 9) --> 16, (1, 10) --> 13, (1, 11) --> 18, (1, 12) --> 2, (1, 13) --> 21,
                 (1, 14) --> 7, (1, 15) --> 20, (1, 16) --> 13, (1, 17) --> 10, (1, 18) --> 3, (1, 19) --> 5,
                 (1, 20) --> 22, (1, 21) --> 18, (1, 22) --> 7, (1, 23) --> 0, (1, 24) --> 13, (1, 25) --> 13,
                 (1, 26) --> 7, (2, 1) --> 11, (2, 2) --> 0, (2, 3) --> 19, (2, 4) --> 12, (2, 5) --> 11, (2, 6) --> 22,
                 (2, 7) --> 14, (2, 8) --> 15, (2, 9) --> 7, (2, 10) --> 16, (2, 11) --> 9, (2, 12) --> 0,
                 (2, 13) --> 0, (2, 14) --> 5, (2, 15) --> 3, (2, 16) --> 5, (2, 17) --> 16, (2, 18) --> 0,
                 (2, 19) --> 3, (2, 20) --> 14, (2, 21) --> 20, (2, 22) --> 21, (2, 23) --> 18, (2, 24) --> 20,
                 (2, 25) --> 12, (2, 26) --> 3, (3, 1) --> 11, (3, 2) --> 19, (3, 3) --> 0, (3, 4) --> 15, (3, 5) --> 9,
                 (3, 6) --> 20, (3, 7) --> 18, (3, 8) --> 2, (3, 9) --> 6, (3, 10) --> 15, (3, 11) --> 1,
                 (3, 12) --> 11, (3, 13) --> 5, (3, 14) --> 2, (3, 15) --> 7, (3, 16) --> 7, (3, 17) --> 19,
                 (3, 18) --> 21, (3, 19) --> 1, (3, 20) --> 18, (3, 21) --> 12, (3, 22) --> 15, (3, 23) --> 3,
                 (3, 24) --> 0, (3, 25) --> 17, (3, 26) --> 13, (4, 1) --> 22, (4, 2) --> 12, (4, 3) --> 15,
                 (4, 4) --> 0, (4, 5) --> 19, (4, 6) --> 19, (4, 7) --> 15, (4, 8) --> 5, (4, 9) --> 22, (4, 10) --> 12,
                 (4, 11) --> 21, (4, 12) --> 11, (4, 13) --> 9, (4, 14) --> 10, (4, 15) --> 5, (4, 16) --> 19,
                 (4, 17) --> 17, (4, 18) --> 19, (4, 19) --> 20, (4, 20) --> 0, (4, 21) --> 21, (4, 22) --> 20,
                 (4, 23) --> 10, (4, 24) --> 7, (4, 25) --> 13, (4, 26) --> 6, (5, 1) --> 17, (5, 2) --> 11,
                 (5, 3) --> 9, (5, 4) --> 19, (5, 5) --> 0, (5, 6) --> 5, (5, 7) --> 8, (5, 8) --> 2, (5, 9) --> 16,
                 (5, 10) --> 12, (5, 11) --> 2, (5, 12) --> 9, (5, 13) --> 17, (5, 14) --> 6, (5, 15) --> 14,
                 (5, 16) --> 0, (5, 17) --> 13, (5, 18) --> 12, (5, 19) --> 19, (5, 20) --> 20, (5, 21) --> 5,
                 (5, 22) --> 1, (5, 23) --> 19, (5, 24) --> 22, (5, 25) --> 6, (5, 26) --> 10, (6, 1) --> 16,
                 (6, 2) --> 22, (6, 3) --> 20, (6, 4) --> 19, (6, 5) --> 5, (6, 6) --> 0, (6, 7) --> 19, (6, 8) --> 15,
                 (6, 9) --> 0, (6, 10) --> 17, (6, 11) --> 5, (6, 12) --> 12, (6, 13) --> 8, (6, 14) --> 20,
                 (6, 15) --> 21, (6, 16) --> 2, (6, 17) --> 1, (6, 18) --> 14, (6, 19) --> 9, (6, 20) --> 4,
                 (6, 21) --> 19, (6, 22) --> 12, (6, 23) --> 6, (6, 24) --> 13, (6, 25) --> 17, (6, 26) --> 18,
                 (7, 1) --> 7, (7, 2) --> 14, (7, 3) --> 18, (7, 4) --> 15, (7, 5) --> 8, (7, 6) --> 19, (7, 7) --> 0,
                 (7, 8) --> 22, (7, 9) --> 3, (7, 10) --> 4, (7, 11) --> 0, (7, 12) --> 11, (7, 13) --> 2,
                 (7, 14) --> 5, (7, 15) --> 9, (7, 16) --> 11, (7, 17) --> 2, (7, 18) --> 5, (7, 19) --> 6,
                 (7, 20) --> 18, (7, 21) --> 11, (7, 22) --> 0, (7, 23) --> 4, (7, 24) --> 21, (7, 25) --> 22,
                 (7, 26) --> 16, (8, 1) --> 12, (8, 2) --> 15, (8, 3) --> 2, (8, 4) --> 5, (8, 5) --> 2, (8, 6) --> 15,
                 (8, 7) --> 22, (8, 8) --> 0, (8, 9) --> 4, (8, 10) --> 20, (8, 11) --> 17, (8, 12) --> 15,
                 (8, 13) --> 5, (8, 14) --> 6, (8, 15) --> 3, (8, 16) --> 13, (8, 17) --> 2, (8, 18) --> 5,
                 (8, 19) --> 10, (8, 20) --> 9, (8, 21) --> 20, (8, 22) --> 17, (8, 23) --> 16, (8, 24) --> 2,
                 (8, 25) --> 17, (8, 26) --> 3, (9, 1) --> 16, (9, 2) --> 7, (9, 3) --> 6, (9, 4) --> 22, (9, 5) --> 16,
                 (9, 6) --> 0, (9, 7) --> 3, (9, 8) --> 4, (9, 9) --> 0, (9, 10) --> 5, (9, 11) --> 8, (9, 12) --> 19,
                 (9, 13) --> 3, (9, 14) --> 0, (9, 15) --> 20, (9, 16) --> 1, (9, 17) --> 19, (9, 18) --> 18,
                 (9, 19) --> 4, (9, 20) --> 20, (9, 21) --> 1, (9, 22) --> 14, (9, 23) --> 11, (9, 24) --> 4,
                 (9, 25) --> 14, (9, 26) --> 5, (10, 1) --> 13, (10, 2) --> 16, (10, 3) --> 15, (10, 4) --> 12,
                 (10, 5) --> 12, (10, 6) --> 17, (10, 7) --> 4, (10, 8) --> 20, (10, 9) --> 5, (10, 10) --> 0,
                 (10, 11) --> 12, (10, 12) --> 1, (10, 13) --> 8, (10, 14) --> 11, (10, 15) --> 20, (10, 16) --> 6,
                 (10, 17) --> 0, (10, 18) --> 15, (10, 19) --> 11, (10, 20) --> 6, (10, 21) --> 3, (10, 22) --> 3,
                 (10, 23) --> 17, (10, 24) --> 6, (10, 25) --> 0, (10, 26) --> 18, (11, 1) --> 18, (11, 2) --> 9,
                 (11, 3) --> 1, (11, 4) --> 21, (11, 5) --> 2, (11, 6) --> 5, (11, 7) --> 0, (11, 8) --> 17,
                 (11, 9) --> 8, (11, 10) --> 12, (11, 11) --> 0, (11, 12) --> 6, (11, 13) --> 1, (11, 14) --> 5,
                 (11, 15) --> 18, (11, 16) --> 0, (11, 17) --> 6, (11, 18) --> 11, (11, 19) --> 16, (11, 20) --> 9,
                 (11, 21) --> 1, (11, 22) --> 5, (11, 23) --> 21, (11, 24) --> 16, (11, 25) --> 0, (11, 26) --> 18,
                 (12, 1) --> 2, (12, 2) --> 0, (12, 3) --> 11, (12, 4) --> 11, (12, 5) --> 9, (12, 6) --> 12,
                 (12, 7) --> 11, (12, 8) --> 15, (12, 9) --> 19, (12, 10) --> 1, (12, 11) --> 6, (12, 12) --> 0,
                 (12, 13) --> 22, (12, 14) --> 5, (12, 15) --> 3, (12, 16) --> 19, (12, 17) --> 20, (12, 18) --> 1,
                 (12, 19) --> 11, (12, 20) --> 3, (12, 21) --> 6, (12, 22) --> 5, (12, 23) --> 22, (12, 24) --> 11,
                 (12, 25) --> 7, (12, 26) --> 17, (13, 1) --> 21, (13, 2) --> 0, (13, 3) --> 5, (13, 4) --> 9,
                 (13, 5) --> 17, (13, 6) --> 8, (13, 7) --> 2, (13, 8) --> 5, (13, 9) --> 3, (13, 10) --> 8,
                 (13, 11) --> 1, (13, 12) --> 22, (13, 13) --> 0, (13, 14) --> 4, (13, 15) --> 4, (13, 16) --> 11,
                 (13, 17) --> 15, (13, 18) --> 8, (13, 19) --> 2, (13, 20) --> 18, (13, 21) --> 2, (13, 22) --> 6,
                 (13, 23) --> 22, (13, 24) --> 16, (13, 25) --> 17, (13, 26) --> 4, (14, 1) --> 7, (14, 2) --> 5,
                 (14, 3) --> 2, (14, 4) --> 10, (14, 5) --> 6, (14, 6) --> 20, (14, 7) --> 5, (14, 8) --> 6,
                 (14, 9) --> 0, (14, 10) --> 11, (14, 11) --> 5, (14, 12) --> 5, (14, 13) --> 4, (14, 14) --> 0,
                 (14, 15) --> 11, (14, 16) --> 7, (14, 17) --> 16, (14, 18) --> 2, (14, 19) --> 1, (14, 20) --> 3,
                 (14, 21) --> 17, (14, 22) --> 15, (14, 23) --> 17, (14, 24) --> 9, (14, 25) --> 16, (14, 26) --> 10,
                 (15, 1) --> 20, (15, 2) --> 3, (15, 3) --> 7, (15, 4) --> 5, (15, 5) --> 14, (15, 6) --> 21,
                 (15, 7) --> 9, (15, 8) --> 3, (15, 9) --> 20, (15, 10) --> 20, (15, 11) --> 18, (15, 12) --> 3,
                 (15, 13) --> 4, (15, 14) --> 11, (15, 15) --> 0, (15, 16) --> 16, (15, 17) --> 22, (15, 18) --> 10,
                 (15, 19) --> 14, (15, 20) --> 10, (15, 21) --> 1, (15, 22) --> 2, (15, 23) --> 14, (15, 24) --> 12,
                 (15, 25) --> 0, (15, 26) --> 4, (16, 1) --> 13, (16, 2) --> 5, (16, 3) --> 7, (16, 4) --> 19,
                 (16, 5) --> 0, (16, 6) --> 2, (16, 7) --> 11, (16, 8) --> 13, (16, 9) --> 1, (16, 10) --> 6,
                 (16, 11) --> 0, (16, 12) --> 19, (16, 13) --> 11, (16, 14) --> 7, (16, 15) --> 16, (16, 16) --> 0,
                 (16, 17) --> 1, (16, 18) --> 16, (16, 19) --> 4, (16, 20) --> 20, (16, 21) --> 13, (16, 22) --> 12,
                 (16, 23) --> 3, (16, 24) --> 10, (16, 25) --> 4, (16, 26) --> 18, (17, 1) --> 10, (17, 2) --> 16,
                 (17, 3) --> 19, (17, 4) --> 17, (17, 5) --> 13, (17, 6) --> 1, (17, 7) --> 2, (17, 8) --> 2,
                 (17, 9) --> 19, (17, 10) --> 0, (17, 11) --> 6, (17, 12) --> 20, (17, 13) --> 15, (17, 14) --> 16,
                 (17, 15) --> 22, (17, 16) --> 1, (17, 17) --> 0, (17, 18) --> 14, (17, 19) --> 4, (17, 20) --> 21,
                 (17, 21) --> 13, (17, 22) --> 8, (17, 23) --> 4, (17, 24) --> 13, (17, 25) --> 17, (17, 26) --> 5,
                 (18, 1) --> 3, (18, 2) --> 0, (18, 3) --> 21, (18, 4) --> 19, (18, 5) --> 12, (18, 6) --> 14,
                 (18, 7) --> 5, (18, 8) --> 5, (18, 9) --> 18, (18, 10) --> 15, (18, 11) --> 11, (18, 12) --> 1,
                 (18, 13) --> 8, (18, 14) --> 2, (18, 15) --> 10, (18, 16) --> 16, (18, 17) --> 14, (18, 18) --> 0,
                 (18, 19) --> 0, (18, 20) --> 20, (18, 21) --> 21, (18, 22) --> 1, (18, 23) --> 6, (18, 24) --> 2,
                 (18, 25) --> 4, (18, 26) --> 12, (19, 1) --> 5, (19, 2) --> 3, (19, 3) --> 1, (19, 4) --> 20,
                 (19, 5) --> 19, (19, 6) --> 9, (19, 7) --> 6, (19, 8) --> 10, (19, 9) --> 4, (19, 10) --> 11,
                 (19, 11) --> 16, (19, 12) --> 11, (19, 13) --> 2, (19, 14) --> 1, (19, 15) --> 14, (19, 16) --> 4,
                 (19, 17) --> 4, (19, 18) --> 0, (19, 19) --> 0, (19, 20) --> 20, (19, 21) --> 7, (19, 22) --> 10,
                 (19, 23) --> 5, (19, 24) --> 8, (19, 25) --> 5, (19, 26) --> 0, (20, 1) --> 22, (20, 2) --> 14,
                 (20, 3) --> 18, (20, 4) --> 0, (20, 5) --> 20, (20, 6) --> 4, (20, 7) --> 18, (20, 8) --> 9,
                 (20, 9) --> 20, (20, 10) --> 6, (20, 11) --> 9, (20, 12) --> 3, (20, 13) --> 18, (20, 14) --> 3,
                 (20, 15) --> 10, (20, 16) --> 20, (20, 17) --> 21, (20, 18) --> 20, (20, 19) --> 20, (20, 20) --> 0,
                 (20, 21) --> 19, (20, 22) --> 10, (20, 23) --> 0, (20, 24) --> 0, (20, 25) --> 12, (20, 26) --> 3,
                 (21, 1) --> 18, (21, 2) --> 20, (21, 3) --> 12, (21, 4) --> 21, (21, 5) --> 5, (21, 6) --> 19,
                 (21, 7) --> 11, (21, 8) --> 20, (21, 9) --> 1, (21, 10) --> 3, (21, 11) --> 1, (21, 12) --> 6,
                 (21, 13) --> 2, (21, 14) --> 17, (21, 15) --> 1, (21, 16) --> 13, (21, 17) --> 13, (21, 18) --> 21,
                 (21, 19) --> 7, (21, 20) --> 19, (21, 21) --> 0, (21, 22) --> 17, (21, 23) --> 12, (21, 24) --> 8,
                 (21, 25) --> 4, (21, 26) --> 12, (22, 1) --> 7, (22, 2) --> 21, (22, 3) --> 15, (22, 4) --> 20,
                 (22, 5) --> 1, (22, 6) --> 12, (22, 7) --> 0, (22, 8) --> 17, (22, 9) --> 14, (22, 10) --> 3,
                 (22, 11) --> 5, (22, 12) --> 5, (22, 13) --> 6, (22, 14) --> 15, (22, 15) --> 2, (22, 16) --> 12,
                 (22, 17) --> 8, (22, 18) --> 1, (22, 19) --> 10, (22, 20) --> 10, (22, 21) --> 17, (22, 22) --> 0,
                 (22, 23) --> 19, (22, 24) --> 4, (22, 25) --> 7, (22, 26) --> 18, (23, 1) --> 0, (23, 2) --> 18,
                 (23, 3) --> 3, (23, 4) --> 10, (23, 5) --> 19, (23, 6) --> 6, (23, 7) --> 4, (23, 8) --> 16,
                 (23, 9) --> 11, (23, 10) --> 17, (23, 11) --> 21, (23, 12) --> 22, (23, 13) --> 22, (23, 14) --> 17,
                 (23, 15) --> 14, (23, 16) --> 3, (23, 17) --> 4, (23, 18) --> 6, (23, 19) --> 5, (23, 20) --> 0,
                 (23, 21) --> 12, (23, 22) --> 19, (23, 23) --> 0, (23, 24) --> 6, (23, 25) --> 6, (23, 26) --> 17,
                 (24, 1) --> 13, (24, 2) --> 20, (24, 3) --> 0, (24, 4) --> 7, (24, 5) --> 22, (24, 6) --> 13,
                 (24, 7) --> 21, (24, 8) --> 2, (24, 9) --> 4, (24, 10) --> 6, (24, 11) --> 16, (24, 12) --> 11,
                 (24, 13) --> 16, (24, 14) --> 9, (24, 15) --> 12, (24, 16) --> 10, (24, 17) --> 13, (24, 18) --> 2,
                 (24, 19) --> 8, (24, 20) --> 0, (24, 21) --> 8, (24, 22) --> 4, (24, 23) --> 6, (24, 24) --> 0,
                 (24, 25) --> 4, (24, 26) --> 19, (25, 1) --> 13, (25, 2) --> 12, (25, 3) --> 17, (25, 4) --> 13,
                 (25, 5) --> 6, (25, 6) --> 17, (25, 7) --> 22, (25, 8) --> 17, (25, 9) --> 14, (25, 10) --> 0,
                 (25, 11) --> 0, (25, 12) --> 7, (25, 13) --> 17, (25, 14) --> 16, (25, 15) --> 0, (25, 16) --> 4,
                 (25, 17) --> 17, (25, 18) --> 4, (25, 19) --> 5, (25, 20) --> 12, (25, 21) --> 4, (25, 22) --> 7,
                 (25, 23) --> 6, (25, 24) --> 4, (25, 25) --> 0, (25, 26) --> 7, (26, 1) --> 7, (26, 2) --> 3,
                 (26, 3) --> 13, (26, 4) --> 6, (26, 5) --> 10, (26, 6) --> 18, (26, 7) --> 16, (26, 8) --> 3,
                 (26, 9) --> 5, (26, 10) --> 18, (26, 11) --> 18, (26, 12) --> 17, (26, 13) --> 4, (26, 14) --> 10,
                 (26, 15) --> 4, (26, 16) --> 18, (26, 17) --> 5, (26, 18) --> 12, (26, 19) --> 0, (26, 20) --> 3,
                 (26, 21) --> 12, (26, 22) --> 18, (26, 23) --> 17, (26, 24) --> 19, (26, 25) --> 7, (26, 26) --> 0)
letting maxDist be 22
letting minDist be 161
letting nbCharacter be 26
letting numOfCodeWords be 7
